<number of tasks>
50

<cycle time>
1000

<order strength>
0.198


<task times>
1 270
2 252
3 423
4 611
5 301
6 131
7 88
8 162
9 31
10 32
11 355
12 469
13 34
14 38
15 153
16 47
17 166
18 147
19 170
20 490
21 98
22 40
23 65
24 495
25 74
26 162
27 156
28 117
29 346
30 59
31 495
32 199
33 148
34 155
35 139
36 217
37 95
38 479
39 37
40 34
41 314
42 371
43 160
44 158
45 32
46 66
47 491
48 115
49 473
50 240

<precedence relations>
1,18
2,18
3,12
4,14
5,11
5,13
5,15
6,17
7,9
8,10
8,16
9,18
10,18
11,19
12,21
13,20
14,22
15,24
17,23
18,25
18,26
18,27
18,28
18,30
18,31
19,29
20,29
23,32
26,36
28,33
29,35
30,37
31,34
34,38
35,40
37,39
37,41
38,42
38,45
39,46
41,43
41,44
42,47
43,48
44,49
46,50

<end>
